100 8
859 191
518 694
401 281
573 422
701 602
346 737
409 395
244 727
504 711
687 549
338 877
381 232
246 815
310 488
362 958
650 533
469 733
596 713
540 598
754 205
638 479
646 712
356 867
628 565
455 740
744 882
368 391
470 471
298 855
548 645
489 411
742 786
717 762
798 502
385 795
628 630
544 546
774 111
349 863
511 259
895 253
652 770
640 824
744 462
299 171
571 448
445 913
370 182
312 328
739 478
324 173
161 808
736 770
843 935
669 593
535 490
761 836
555 665
353 474
413 450
761 148
687 450
683 638
307 302
828 508
590 747
553 235
389 307
396 791
207 697
97 240
342 379
489 693
859 372
783 827
490 476
260 253
519 717
534 479
674 773
451 873
243 672
851 810
542 621
592 588
89 180
639 588
112 189
597 613
212 777
176 260
966 444
834 226
937 524
361 210
368 873
722 767
625 722
685 556
541 463
